Traveling Salesman Problem/TSP_generados/Aleatorio1621103535_15.tsp
NAME: Aleatorio1621103535_15.tsp
COMMENT: Randomly generated scenario
TYPE: TSP
DIMENSION: 15
EDGE_WEIGHT_TYPE: ATT
NODE_COORD_SECTION
1 40.31 2.39
2 46.74 20.81
3 24.01 28.56
4 17.23 8.46
5 7.81 12.84
6 34.47 19.97
7 8.65 3.58
8 37.04 15.99
9 8.24 38.72
10 5.28 36.46
11 17.43 16.68
12 0.87 44.2
13 17.94 41.98
14 16.03 8.38
15 33.59 9.4
