Traveling Salesman Problem/TSP_generados/Aleatorio1621103535_15.opt.tour
NAME: Aleatorio1621103535_15.opt.tour
COMMENT: Optimal solution for Aleatorio1621103535_15 (170.38543853092312)
TYPE: TOUR
DIMENSION: 15
TOUR_SECTION
1 2 8 6 3 13 9 12 10 5 7 14 4 11 15
-1
EOF
